peakDumbCharging = 14800; 
Machine = anon_enum(16); 
machineSpeed = [3700,3700,3700,3700,3700,3700,3700,3700,3700,3700,3700,3700,3700,3700,3700,3700]; 
machineLoad = [3700,3700,3700,3700,3700,3700,3700,3700,3700,3700,3700,3700,3700,3700,3700,3700]; 
Car = anon_enum(24); 
demandCar = [2800,17840,2800,22440,9600,7880,2880,5160,4440,12880,11480,1920,3920,4520,14800,11800,13880,8040,2560,6640,7400,5000,30280,1760]; 
arrivalCar = [74,73,70,70,68,67,66,64,63,61,60,57,56,48,47,45,44,41,40,39,36,36,36,35]; 
departureCar = [76,79,73,77,72,72,68,66,65,66,64,59,58,52,52,52,51,44,43,42,40,39,47,38]; 
